c Reduced graph for p32 generated by Cyril Grelier
p edge 34 125
e 1 7
e 1 12
e 1 20
e 1 33
e 1 34
e 2 8
e 2 13
e 2 18
e 2 27
e 2 28
e 3 10
e 3 16
e 3 25
e 4 7
e 4 24
e 5 14
e 5 19
e 5 22
e 5 24
e 5 25
e 5 26
e 5 33
e 6 10
e 6 14
e 6 15
e 6 16
e 6 17
e 6 18
e 6 21
e 6 23
e 6 27
e 6 29
e 6 30
e 6 31
e 6 32
e 7 12
e 7 20
e 7 24
e 7 34
e 8 11
e 8 12
e 8 15
e 8 27
e 8 28
e 9 19
e 9 23
e 9 28
e 9 34
e 10 15
e 10 18
e 10 21
e 10 23
e 10 25
e 10 30
e 11 12
e 11 15
e 11 31
e 12 15
e 12 20
e 12 34
e 13 18
e 13 29
e 14 16
e 14 17
e 14 19
e 14 22
e 14 24
e 14 25
e 14 26
e 14 27
e 14 29
e 14 31
e 14 32
e 14 33
e 15 18
e 15 21
e 15 23
e 15 30
e 16 17
e 16 27
e 16 29
e 16 31
e 16 32
e 17 27
e 17 29
e 17 31
e 17 32
e 18 21
e 18 23
e 18 30
e 19 22
e 19 23
e 19 24
e 19 25
e 19 26
e 19 28
e 19 33
e 19 34
e 20 22
e 20 30
e 20 34
e 21 23
e 21 30
e 22 24
e 22 25
e 22 26
e 22 30
e 22 33
e 23 28
e 23 30
e 23 34
e 24 25
e 24 26
e 24 33
e 25 26
e 25 33
e 26 33
e 27 28
e 27 29
e 27 31
e 27 32
e 28 34
e 29 31
e 29 32
e 31 32
